nN = 5;
nR = 30;
nH = 1;

a = [[15, 20, 23, 10, 16, 20, 20, 24, 13, 13, 11, 11, 15, 16, 18, 17, 17, 19, 20, 10, 15, 17, 12, 17, 15, 23, 22, 23, 25, 16], [18, 23, 19, 11, 14, 20, 20, 13, 20, 11, 13, 24, 14, 16, 18, 19, 19, 14, 16, 12, 11, 16, 12, 23, 12, 19, 10, 10, 22, 20], [15, 23, 11, 19, 11, 13, 16, 21, 23, 24, 13, 15, 18, 24, 21, 23, 21, 20, 25, 19, 15, 18, 17, 21, 23, 10, 11, 20, 15, 17], [18, 24, 11, 21, 22, 11, 23, 11, 16, 12, 20, 21, 15, 10, 16, 24, 20, 19, 22, 19, 24, 25, 15, 24, 19, 18, 21, 20, 15, 23], [25, 16, 21, 13, 12, 12, 16, 17, 11, 21, 22, 12, 21, 13, 20, 22, 12, 21, 14, 20, 23, 13, 25, 10, 10, 20, 12, 19, 23, 14]];
c = [[[0, 0, 0, 0, 0, 0, 0, 0, 0, 0, 0, 0, 0, 0, 0, 0, 0, 0, 0, 0, 0, 0, 0, 0, 0, 0, 0, 0, 0, 0], [35, 43, 34, 39, 37, 35, 39, 37, 45, 39, 36, 32, 44, 49, 45, 50, 36, 37, 42, 36, 45, 31, 37, 46, 30, 32, 47, 45, 42, 37], [35, 48, 36, 35, 42, 39, 50, 50, 43, 30, 39, 45, 50, 39, 34, 42, 48, 39, 36, 43, 42, 40, 35, 43, 33, 40, 47, 39, 47, 32], [39, 34, 45, 33, 35, 42, 30, 38, 44, 41, 30, 36, 46, 36, 33, 34, 47, 36, 31, 41, 34, 34, 49, 41, 36, 48, 44, 48, 50, 36], [45, 48, 47, 38, 40, 44, 48, 48, 46, 38, 35, 36, 43, 36, 35, 38, 44, 46, 32, 45, 45, 48, 47, 49, 44, 38, 41, 49, 42, 47]], [[0, 0, 0, 0, 0, 0, 0, 0, 0, 0, 0, 0, 0, 0, 0, 0, 0, 0, 0, 0, 0, 0, 0, 0, 0, 0, 0, 0, 0, 0], [0, 0, 0, 0, 0, 0, 0, 0, 0, 0, 0, 0, 0, 0, 0, 0, 0, 0, 0, 0, 0, 0, 0, 0, 0, 0, 0, 0, 0, 0], [39, 41, 42, 40, 42, 46, 42, 42, 35, 32, 33, 46, 46, 42, 42, 49, 43, 45, 42, 47, 42, 47, 46, 31, 30, 41, 37, 42, 38, 47], [46, 38, 31, 46, 33, 40, 47, 46, 40, 40, 44, 45, 39, 37, 31, 31, 45, 48, 40, 37, 42, 45, 35, 49, 41, 34, 34, 39, 43, 49], [42, 37, 42, 44, 40, 44, 31, 36, 35, 47, 40, 33, 37, 34, 46, 33, 45, 32, 32, 39, 47, 33, 50, 45, 49, 47, 43, 38, 40, 41]], [[0, 0, 0, 0, 0, 0, 0, 0, 0, 0, 0, 0, 0, 0, 0, 0, 0, 0, 0, 0, 0, 0, 0, 0, 0, 0, 0, 0, 0, 0], [0, 0, 0, 0, 0, 0, 0, 0, 0, 0, 0, 0, 0, 0, 0, 0, 0, 0, 0, 0, 0, 0, 0, 0, 0, 0, 0, 0, 0, 0], [0, 0, 0, 0, 0, 0, 0, 0, 0, 0, 0, 0, 0, 0, 0, 0, 0, 0, 0, 0, 0, 0, 0, 0, 0, 0, 0, 0, 0, 0], [33, 33, 33, 50, 46, 33, 30, 34, 35, 40, 45, 45, 36, 38, 34, 50, 30, 46, 39, 36, 33, 30, 43, 39, 47, 48, 37, 38, 37, 35], [37, 46, 50, 41, 30, 43, 46, 40, 32, 43, 31, 31, 33, 43, 49, 30, 45, 36, 50, 47, 45, 40, 33, 50, 42, 49, 47, 47, 49, 47]], [[0, 0, 0, 0, 0, 0, 0, 0, 0, 0, 0, 0, 0, 0, 0, 0, 0, 0, 0, 0, 0, 0, 0, 0, 0, 0, 0, 0, 0, 0], [0, 0, 0, 0, 0, 0, 0, 0, 0, 0, 0, 0, 0, 0, 0, 0, 0, 0, 0, 0, 0, 0, 0, 0, 0, 0, 0, 0, 0, 0], [0, 0, 0, 0, 0, 0, 0, 0, 0, 0, 0, 0, 0, 0, 0, 0, 0, 0, 0, 0, 0, 0, 0, 0, 0, 0, 0, 0, 0, 0], [0, 0, 0, 0, 0, 0, 0, 0, 0, 0, 0, 0, 0, 0, 0, 0, 0, 0, 0, 0, 0, 0, 0, 0, 0, 0, 0, 0, 0, 0], [34, 40, 43, 46, 45, 30, 42, 36, 45, 37, 35, 49, 34, 44, 37, 45, 43, 39, 31, 46, 49, 45, 37, 47, 39, 32, 42, 36, 31, 38]], [[0, 0, 0, 0, 0, 0, 0, 0, 0, 0, 0, 0, 0, 0, 0, 0, 0, 0, 0, 0, 0, 0, 0, 0, 0, 0, 0, 0, 0, 0], [0, 0, 0, 0, 0, 0, 0, 0, 0, 0, 0, 0, 0, 0, 0, 0, 0, 0, 0, 0, 0, 0, 0, 0, 0, 0, 0, 0, 0, 0], [0, 0, 0, 0, 0, 0, 0, 0, 0, 0, 0, 0, 0, 0, 0, 0, 0, 0, 0, 0, 0, 0, 0, 0, 0, 0, 0, 0, 0, 0], [0, 0, 0, 0, 0, 0, 0, 0, 0, 0, 0, 0, 0, 0, 0, 0, 0, 0, 0, 0, 0, 0, 0, 0, 0, 0, 0, 0, 0, 0], [0, 0, 0, 0, 0, 0, 0, 0, 0, 0, 0, 0, 0, 0, 0, 0, 0, 0, 0, 0, 0, 0, 0, 0, 0, 0, 0, 0, 0, 0]]];

q = [[[25], [9], [15], [24], [12], [14], [23], [13], [17], [15], [17], [15], [21], [23], [16], [23], [15], [18], [7], [16], [18], [10], [6], [24], [21], [8], [10], [16], [7], [7]], [[8], [20], [11], [9], [13], [6], [13], [13], [12], [24], [17], [9], [13], [17], [11], [15], [10], [24], [6], [20], [16], [14], [23], [12], [11], [11], [22], [8], [9], [12]], [[21], [7], [14], [8], [6], [18], [11], [18], [18], [10], [21], [9], [20], [20], [15], [20], [7], [17], [14], [8], [14], [12], [21], [19], [24], [21], [16], [5], [19], [17]], [[14], [20], [9], [14], [17], [8], [8], [9], [20], [17], [9], [19], [7], [15], [12], [12], [16], [22], [20], [5], [15], [16], [18], [8], [22], [24], [21], [22], [12], [7]], [[20], [7], [5], [10], [13], [7], [8], [21], [19], [16], [12], [20], [16], [8], [18], [17], [23], [6], [12], [10], [22], [24], [6], [20], [8], [9], [17], [8], [24], [22]]];
Q = [[74], [65], [72], [70], [68]];
